MW

VEHICLE
NUMBER     CAPACITY
  25         33

CUSTOMER
CUST NO.   XCOORD.    YCOORD.    DEMAND   READY TIME   DUE DATE   SERVICE TIME

    0      677.908     6150.22       0         360        1320         0
    1      681.736     6202.21       13        392         512         0
    2      701.138     6151.3       13        373         493         0
    3      652.039     6171.58       12        389         509         0
    4      715.238     6169.8       3        360         475         0
    5      719.124     6184.43       12        391         511         0
    6      723.486     6178.63       13        376         496         0
    7      723.734     6174.88       5        380         500         0
    8      719.29     6179.23       4        423         543         0
    9      726.163     6176.15       10        421         541         0
    10      701.535     6149.75       15        360         468         0
    11      649.349     6143.79       10        376         496         0
    12      683.341     6082.14       15        484         604         0
    13      693.328     6218.64       9        462         582         0
    14      712.36     6186.5       15        399         519         0
    15      699.242     6145.02       8        360         459         0
    16      676.778     6122.15       4        360         462         0
    17      727.412     6176.29       17        409         529         0
    18      712.877     6208.05       11        423         543         0
    19      724.4     6176.86       10        402         522         0
    20      718.343     6201.91       17        428         548         0
    21      545.244     6157.35       13        704         824         0
    22      533.203     6173.31       13        745         865         0
    23      562.307     6223.35       12        777         897         0
    24      602.378     6102.04       3        717         837         0
    25      548.134     6158.2       12        701         821         0
    26      525.924     6100.35       13        859         979         0
    27      521.959     6153.84       5        852         972         0
    28      534.033     6225.02       4        843         963         0
    29      615.509     6254.28       10        797         917         0
    30      530.279     6147.99       15        827         947         0
    31      565.076     6258.54       10        819         939         0
    32      521.794     6186.03       15        867         987         0
    33      547.316     6092       9        813         933         0
    34      570.64     6217.48       15        702         822         0
    35      528.634     6122.39       8        845         965         0
    36      531.257     6123.49       4        966         1086         0
    37      545.983     6158.76       17        733         853         0
    38      463.884     6151.12       11        825         945         0
    39      495.61     6178.56       10        823         943         0
    40      574.717     6227.01       17        728         848         0

0	1 2 3 4 5 6 7 8 9 10 11 12 13 14 15 16 17 18 19 20 21 22 23 24 25 26 27 28 29 30 31 32 33 34 35 36 37 38 39 40 
1	2 3 4 5 6 7 8 9 10 11 12 13 14 15 16 17 18 19 20 0 
2	1 3 4 5 6 7 8 9 10 11 12 13 14 15 16 17 18 19 20 0 
3	1 2 4 5 6 7 8 9 10 11 12 13 14 15 16 17 18 19 20 0 
4	1 2 3 5 6 7 8 9 10 11 12 13 14 15 16 17 18 19 20 0 
5	1 2 3 4 6 7 8 9 10 11 12 13 14 15 16 17 18 19 20 0 
6	1 2 3 4 5 7 8 9 10 11 12 13 14 15 16 17 18 19 20 0 
7	1 2 3 4 5 6 8 9 10 11 12 13 14 15 16 17 18 19 20 0 
8	1 2 3 4 5 6 7 9 10 11 12 13 14 15 16 17 18 19 20 0 
9	1 2 3 4 5 6 7 8 10 11 12 13 14 15 16 17 18 19 20 0 
10	1 2 3 4 5 6 7 8 9 11 12 13 14 15 16 17 18 19 20 0 
11	1 2 3 4 5 6 7 8 9 10 12 13 14 15 16 17 18 19 20 0 
12	1 2 3 4 5 6 7 8 9 10 11 13 14 15 16 17 18 19 20 0 
13	1 2 3 4 5 6 7 8 9 10 11 12 14 15 16 17 18 19 20 0 
14	1 2 3 4 5 6 7 8 9 10 11 12 13 15 16 17 18 19 20 0 
15	1 2 3 4 5 6 7 8 9 10 11 12 13 14 16 17 18 19 20 0 
16	1 2 3 4 5 6 7 8 9 10 11 12 13 14 15 17 18 19 20 0 
17	1 2 3 4 5 6 7 8 9 10 11 12 13 14 15 16 18 19 20 0 
18	1 2 3 4 5 6 7 8 9 10 11 12 13 14 15 16 17 19 20 0 
19	1 2 3 4 5 6 7 8 9 10 11 12 13 14 15 16 17 18 20 0 
20	1 2 3 4 5 6 7 8 9 10 11 12 13 14 15 16 17 18 19 0 
21	22 23 24 25 26 27 28 29 30 31 32 33 34 35 36 37 38 39 40 0 
22	21 23 24 25 26 27 28 29 30 31 32 33 34 35 36 37 38 39 40 0 
23	21 22 24 25 26 27 28 29 30 31 32 33 34 35 36 37 38 39 40 0 
24	21 22 23 25 26 27 28 29 30 31 32 33 34 35 36 37 38 39 40 0 
25	21 22 23 24 26 27 28 29 30 31 32 33 34 35 36 37 38 39 40 0 
26	21 22 23 24 25 27 28 29 30 31 32 33 34 35 36 37 38 39 40 0 
27	21 22 23 24 25 26 28 29 30 31 32 33 34 35 36 37 38 39 40 0 
28	21 22 23 24 25 26 27 29 30 31 32 33 34 35 36 37 38 39 40 0 
29	21 22 23 24 25 26 27 28 30 31 32 33 34 35 36 37 38 39 40 0 
30	21 22 23 24 25 26 27 28 29 31 32 33 34 35 36 37 38 39 40 0 
31	21 22 23 24 25 26 27 28 29 30 32 33 34 35 36 37 38 39 40 0 
32	21 22 23 24 25 26 27 28 29 30 31 33 34 35 36 37 38 39 40 0 
33	21 22 23 24 25 26 27 28 29 30 31 32 34 35 36 37 38 39 40 0 
34	21 22 23 24 25 26 27 28 29 30 31 32 33 35 36 37 38 39 40 0 
35	21 22 23 24 25 26 27 28 29 30 31 32 33 34 36 37 38 39 40 0 
36	21 22 23 24 25 26 27 28 29 30 31 32 33 34 35 37 38 39 40 0 
37	21 22 23 24 25 26 27 28 29 30 31 32 33 34 35 36 38 39 40 0 
38	21 22 23 24 25 26 27 28 29 30 31 32 33 34 35 36 37 39 40 0 
39	21 22 23 24 25 26 27 28 29 30 31 32 33 34 35 36 37 38 40 0 
40	21 22 23 24 25 26 27 28 29 30 31 32 33 34 35 36 37 38 39 0 

